INPUT_PARAMETERS_PATH=./input/
INPUT_ARTIFACTS_PATH=./input/
OUTPUT_PARAMETERS_PATH=./output/
OUTPUT_ARTIFACTS_PATH=./output/