INPUT_PARAMETERS_PATH=../parameters/input/
INPUT_ARTIFACTS_PATH=../artifacts/input/
OUTPUT_PARAMETERS_PATH=../parameters/output/
OUTPUT_ARTIFACTS_PATH=../artifacts/output/